10J3M/DAT/10J3MUNR-13.dat
10 3
26.2476 43.6493
24.7793 27.0894
32.809 29.9601
44.711 17.886
11.6084 29.9772
14.4365 46.0614
44.1222 46.8667
40.711 6.2229
8.9896 4.6012
10.9469 34.2916
286.6058