10J3M/SOL/10J3MUNR-13.sol
solution status: optimal solution found
objective value:                     90.6396666666667
x#1#1                                               1 	(obj:0)
x#2#2                                               1 	(obj:0)
x#3#3                                               1 	(obj:0)
x#4#2                               0.942325309891389 	(obj:0)
x#4#3                               0.057674690108611 	(obj:0)
x#5#1                                               1 	(obj:0)
x#6#1                                               1 	(obj:0)
x#7#1                                               1 	(obj:0)
x#8#2                                               1 	(obj:0)
x#9#3                                               1 	(obj:0)
x#10#1                              0.789201650859011 	(obj:0)
x#10#2                              0.210798349140989 	(obj:0)
z                                    90.6396666666667 	(obj:1)
